95 2046
1 5 6 7 9 13 14 16 17 20 21 24 27 29 30 34 37 41 44 45 47 48 50 51 52 53 54 55 57 59 62 63 64 65 67 69 70 71 73 74 76 77 78 80 83 92 93 94
0 6 7 10 13 14 16 17 18 19 20 22 23 24 25 28 29 32 35 38 47 52 53 56 57 61 69 71 73 75 79 80 81 83 84 85 86 89 90 92 93
3 6 7 10 11 12 16 17 18 20 23 25 26 28 32 37 38 39 40 42 43 44 46 47 49 51 52 54 56 58 61 63 64 66 67 68 74 75 77 79 80 82 83 84 86 89 90 92 93
2 4 6 7 8 11 12 15 16 17 18 19 20 22 23 25 27 29 31 32 34 36 39 40 42 43 45 49 51 52 54 55 58 61 65 68 69 71 76 77 79 84 89 90 91 92
3 5 9 11 12 13 16 18 20 22 24 25 26 29 30 34 35 36 37 38 43 44 45 46 47 48 54 58 60 61 63 65 67 73 74 75 76 77 82 83 84 90 91 92 93
0 4 6 9 10 11 17 23 24 26 27 28 29 30 31 32 34 36 38 40 41 43 48 53 59 60 61 62 69 70 72 76 77 80 82 83 84 88 90 92 94
0 1 2 3 5 7 8 9 10 11 13 14 21 22 23 24 27 39 40 41 44 45 48 49 51 53 56 57 62 63 64 68 69 73 76 77 80 85 88 90 92 93 94
0 1 2 3 6 11 12 14 16 18 21 22 24 28 32 33 34 36 37 38 40 42 44 45 46 49 51 54 56 59 62 64 65 66 67 75 77 78 80 82 83 86 87 88 91 92 94
3 6 9 10 17 19 20 21 22 23 25 27 28 29 30 31 34 35 36 37 41 42 44 45 48 52 53 54 55 56 57 60 62 67 71 74 75 77 78 80 81 82 83 84 87 94
0 4 5 6 8 11 12 13 14 19 20 23 30 31 33 35 39 44 47 49 53 57 58 62 63 68 71 73 74 76 77 82 86 88 93
1 2 5 6 8 11 12 13 14 17 19 21 27 28 29 30 31 35 36 40 41 45 47 52 53 58 59 63 65 66 71 72 75 77 78 79 80 84 85 87 88 90 92
2 3 4 5 6 7 9 10 19 21 24 25 27 28 30 32 34 36 37 38 44 46 50 51 52 53 54 55 56 57 58 61 63 64 67 69 70 71 72 76 79 80 81 86 88 89 91 94
2 3 4 7 9 10 14 17 19 21 24 27 28 29 30 33 34 36 38 40 45 46 48 52 55 56 57 59 61 62 63 64 65 70 72 74 75 79 81 82 85 88 89 92
0 1 4 6 9 10 14 15 16 20 21 27 29 30 31 32 33 34 36 37 38 44 46 48 49 50 51 56 57 59 60 61 64 67 68 70 73 76 77 80 82 85 90 91 94
0 1 6 7 9 10 12 13 17 18 19 25 27 28 30 31 33 35 38 39 41 42 43 45 46 49 50 51 53 54 55 56 60 61 62 64 66 68 70 71 74 75 77 80 82 83 88 91 92
3 13 16 18 19 20 21 30 32 34 36 37 38 41 42 47 48 50 51 52 54 55 56 59 61 63 65 66 72 74 75 76 78 79 80 81 82 83 84 89 90
0 1 2 3 4 7 13 15 19 20 23 24 25 27 28 31 34 35 38 42 43 48 49 52 54 55 57 58 59 60 63 66 67 72 74 75 76 78 80 83 85 91 92
0 1 2 3 5 8 10 12 14 22 23 25 29 30 33 34 40 41 42 43 44 46 48 49 50 51 55 60 62 67 68 70 72 77 79 82 83 84 89 93 94
1 2 3 4 7 14 15 19 20 21 22 23 25 27 28 30 31 38 41 43 45 46 47 56 57 58 60 62 64 66 67 68 69 70 71 73 74 75 76 79 81 83 85 86 89 93
1 3 8 9 10 11 12 14 15 16 18 20 22 23 26 28 30 31 33 35 37 42 45 47 48 50 51 52 53 56 58 59 60 62 63 65 66 70 71 73 78 79 80 81 82 84 85 86 87 88 91 92
0 1 2 3 4 8 9 13 15 16 18 19 21 25 27 30 31 32 35 36 38 40 42 45 46 47 50 52 56 63 66 67 68 71 73 80 82 83 84 89
0 6 7 8 10 11 12 13 15 18 20 22 23 28 29 30 34 36 38 39 41 46 50 54 56 57 64 68 74 75 79 80 83 85 86 87 88 89 92
1 3 4 6 7 8 17 18 19 21 25 26 27 30 32 33 36 37 39 41 42 43 44 45 49 54 55 56 58 59 60 62 66 67 70 73 76 81 84 86 88 89 91 92
1 2 3 5 6 8 9 16 17 18 19 21 24 27 28 29 32 33 35 36 37 39 42 47 48 49 50 54 56 57 58 61 69 71 72 74 75 77 81 82 85 86 88
0 1 4 5 6 7 11 12 16 23 26 27 28 32 41 44 47 50 52 53 55 59 62 63 67 71 72 74 76 77 78 79 84 85 86
1 2 3 4 8 11 14 16 17 18 20 22 26 32 34 35 36 38 39 40 41 43 44 45 46 48 49 53 55 58 60 63 64 68 70 72 74 75 77 78 81 82 84 87 90 91 93 94
2 4 5 19 22 24 25 28 29 32 33 34 36 41 42 43 46 50 52 53 54 55 56 59 60 63 64 72 73 75 77 78 79 80 81 82 85 86 88 90 91 92 93 94
0 3 5 6 8 10 11 12 13 14 16 18 20 22 23 24 31 32 34 35 38 40 46 48 49 50 51 53 54 56 58 62 63 64 65 66 67 68 70 73 75 78 79 81 84 85 86 87 89 91 92
1 2 5 7 8 10 11 12 14 16 18 19 21 23 24 26 31 33 34 36 37 38 41 42 45 48 49 51 53 55 56 60 61 62 63 66 67 70 72 74 77 78 79 83 84 85 86 88 89 90 91 92
0 1 3 4 5 8 10 12 13 17 21 23 26 31 33 34 42 45 46 48 54 55 56 57 61 62 64 65 67 70 72 73 74 78 79 82 86 89 90 93
0 4 5 8 9 10 11 12 13 14 15 17 18 19 20 21 22 35 37 38 39 42 44 47 51 53 54 57 58 59 61 63 65 70 71 73 74 75 76 78 80 84 85 87 91
3 5 8 9 10 13 14 16 18 19 20 27 28 29 33 34 35 39 40 41 44 47 49 50 52 53 55 56 57 60 61 62 64 65 66 69 75 76 77 78 83 85 86 88 89 91 92
1 2 3 5 7 11 13 15 20 22 23 24 25 26 27 36 37 38 39 40 42 43 44 51 52 53 55 56 63 64 65 67 68 69 70 71 74 75 76 77 78 79 87 88 90 91 92 93
7 9 12 13 14 17 19 22 23 26 28 29 31 34 36 46 48 49 52 57 60 63 66 69 72 75 76 78 80 83 87 91 92 93 94
0 3 4 5 7 8 11 12 13 15 16 17 21 25 26 27 28 29 31 33 35 36 39 44 46 49 50 51 54 55 60 61 67 69 71 75 76 77 79 80 82 84 85 87 88 89 90
1 4 8 9 10 14 16 19 20 23 25 27 30 31 34 36 40 43 47 55 58 59 62 63 67 72 74 75 76 77 78 79 80 85 86 87 90 92
3 4 5 7 8 10 11 12 13 15 20 21 22 23 25 26 28 32 33 34 35 37 38 39 40 43 44 47 54 56 59 60 62 63 65 69 70 71 72 73 76 77 78 81 84 85 90 91 93 94
0 2 4 7 8 11 13 15 19 22 23 28 30 32 36 39 40 45 46 48 49 53 56 59 60 62 63 64 65 68 71 72 74 78 79 81 83 86 88 89 90 92 93
1 2 4 5 7 11 12 13 14 15 16 18 20 21 25 27 28 30 32 36 43 45 46 47 50 51 59 60 61 62 64 65 71 80 82 83 85 87 90 93
2 3 6 9 14 21 22 23 25 30 31 32 34 36 37 41 45 47 48 49 50 51 53 55 60 62 64 68 71 72 73 75 78 80 84 85 86 88 90 91 93 94
2 3 5 6 7 10 12 17 20 25 27 31 32 35 36 37 41 44 46 47 48 52 53 57 58 61 64 65 66 69 70 72 75 78 81 82 83 86 90 91 94
0 5 6 8 10 14 15 17 18 21 22 24 25 26 28 31 39 40 44 45 47 48 49 51 58 60 63 66 68 71 72 73 74 76 78 80 81 87 90 92 93
2 3 7 8 14 15 16 17 19 20 22 23 26 28 29 30 32 43 44 45 46 50 51 52 53 54 55 57 60 61 62 63 64 66 67 75 78 79 80 81 84 87 91 92 94
2 3 4 5 14 16 17 18 22 25 26 32 35 36 38 42 46 47 49 51 52 56 57 59 60 61 66 67 69 70 71 72 74 75 77 78 79 80 81 82 89 90 92 93
0 2 4 6 7 8 9 11 13 17 22 24 25 30 31 32 34 36 40 41 42 46 49 52 53 57 63 65 68 69 72 75 77 80 81 82 89 90 92 93
0 3 4 6 7 8 10 12 14 18 19 20 22 25 28 29 37 38 39 41 42 50 51 52 59 61 62 63 66 67 70 73 76 79 80 81 82 83 93 94
2 4 7 11 12 13 14 17 18 20 21 25 26 27 29 33 34 37 38 40 42 43 44 49 50 51 52 55 58 59 62 63 64 70 71 73 82 84 85 91 92 94
0 1 2 4 9 10 15 18 19 20 23 24 30 31 35 36 38 39 40 41 43 48 53 56 57 59 69 71 73 75 77 78 79 80 81 82 85 88 89 92 93 94
0 4 5 6 8 12 13 15 16 17 19 23 25 27 28 29 33 37 39 40 41 47 49 50 54 55 56 58 59 61 64 66 71 77 78 85 88 89 91
2 3 6 7 9 13 14 16 17 22 23 25 27 28 31 33 34 37 39 41 43 44 46 48 52 53 56 64 67 68 70 71 73 77 79 80 81 82 83 84 90 92 93
0 11 13 14 15 17 19 20 21 23 24 26 27 31 34 38 39 42 45 46 48 51 53 54 57 58 59 61 62 64 65 66 67 69 72 73 75 80 81 84 85 86 90 91 93
0 2 3 6 7 11 13 14 15 17 19 27 28 30 32 34 38 39 41 42 43 45 46 50 52 53 57 59 60 67 68 70 71 73 78 80 81 82 84 88 89 90 91 93
0 1 2 3 8 10 11 12 15 16 19 20 24 26 31 32 33 40 42 43 44 45 46 49 51 54 55 58 61 62 63 66 70 72 76 77 79 80 82 88 89 90 92 94
0 1 5 6 8 9 10 11 14 19 24 25 26 27 28 30 31 32 37 39 40 42 44 47 49 50 51 57 59 61 63 64 65 66 68 70 71 72 76 80 82 84 86 87 88 90 91 92 94
0 2 3 4 7 8 11 14 15 16 21 22 23 26 27 29 30 34 36 42 48 50 52 55 57 62 65 68 70 71 75 79 80 81 83 85 86 87 89 90 94
0 3 8 11 12 14 15 16 17 22 24 25 26 28 29 31 32 34 35 39 42 46 48 52 54 56 58 61 62 66 68 73 75 76 80 81 82 83 84 93
1 2 6 7 8 11 12 13 14 15 18 19 20 21 22 23 26 27 28 29 31 32 36 37 43 47 48 49 55 58 59 62 63 66 67 68 71 74 75 76 80 86 89 92 94
0 1 6 8 9 11 12 13 16 18 21 23 29 30 31 33 40 42 43 44 47 50 51 53 54 58 61 66 68 71 74 75 76 78 79 81 82 83 85 87 90 92 93
2 3 4 9 10 11 16 18 19 22 23 25 27 30 35 40 41 46 48 50 52 55 56 57 60 62 64 65 67 71 73 74 76 80 81 82 85 90 91 94
0 5 7 10 12 13 15 16 19 22 24 26 30 35 36 37 38 43 45 46 47 48 50 51 53 56 65 67 70 71 72 73 78 79 80 82 83 85 88 92
4 5 8 13 14 16 17 18 19 22 25 26 28 31 33 34 36 37 38 39 41 42 43 51 58 62 63 64 67 68 69 70 74 75 76 77 78 79 80 82 83 85 89 90 91 93 94
1 2 3 4 5 11 12 13 14 15 23 28 29 30 31 34 38 40 42 43 45 48 50 52 53 55 57 63 74 75 76 78 80 82 91 92
0 5 6 7 8 9 12 14 17 18 19 22 24 27 28 29 31 35 36 37 38 39 42 45 46 50 52 54 55 56 58 60 66 68 77 78 83 85 87
0 2 4 6 9 10 11 12 15 16 19 20 24 25 26 27 28 30 32 33 35 36 37 41 42 44 45 46 52 53 56 60 61 64 65 66 67 69 73 75 76 80 84 91
0 2 6 7 11 12 13 14 18 21 25 26 27 29 31 32 37 38 39 40 42 46 48 49 50 53 58 60 63 67 69 72 73 74 77 79 80 82 84 85 86 87 89 94
0 3 4 7 10 12 15 19 27 29 30 31 32 36 37 38 40 44 50 53 54 58 59 63 67 68 71 72 75 76 79 81 83 84 85 86 88 91
2 7 10 14 15 16 18 19 20 22 27 28 31 33 40 41 42 43 45 48 50 52 53 55 56 57 62 63 69 75 77 83 84 85 87 88 90 92 94
0 2 4 7 8 11 13 16 17 18 20 22 24 27 28 29 32 34 35 42 43 45 49 50 51 56 58 59 60 63 64 65 68 69 71 72 73 74 75 76 84 88 93 94
2 3 6 9 13 14 17 18 20 21 25 27 32 37 39 41 44 49 51 53 54 55 56 57 60 62 65 67 69 70 71 73 75 77 80 81 82 83 85 92 94
0 1 3 5 6 11 18 23 31 32 33 34 36 40 43 44 47 50 60 63 64 66 67 68 71 73 77 78 79 80 85 86 92 94
0 5 11 12 13 14 17 18 19 22 25 27 28 29 30 32 36 40 43 45 46 49 51 52 53 54 59 60 68 73 75 77 78 81 83 85 90 94
0 1 3 8 9 10 11 14 18 19 20 23 24 30 32 34 36 37 38 39 41 43 46 47 48 49 51 53 54 56 57 58 59 65 67 68 69 76 77 79 80 82 83 84 87 88 90 91 92
5 10 11 12 15 16 17 23 24 25 26 28 29 33 35 36 37 39 40 41 43 44 50 52 53 59 64 65 67 73 74 79 80 81 84 88 89 90 92
0 1 4 6 9 13 18 19 20 22 26 27 29 30 36 39 41 45 46 47 49 50 51 55 58 59 63 64 67 68 69 70 72 78 80 82 83 84 86 87 92 93
0 2 4 8 9 12 14 15 16 18 21 23 24 25 28 29 30 32 35 37 41 43 56 57 58 60 61 64 67 72 75 83 84 86 88 89 90
1 2 4 7 8 10 12 14 15 16 18 21 23 25 26 27 30 31 32 33 34 35 39 40 42 43 44 47 50 54 55 56 57 60 61 63 65 66 67 68 70 74 76 81 82 85 88 89 90 94
0 3 4 5 6 9 11 13 15 16 18 22 24 30 31 32 33 34 35 36 41 45 52 53 55 56 57 58 60 61 63 65 67 71 75 80 81 83 88 89 90 91 92
0 2 3 4 5 6 7 8 9 10 13 14 17 23 24 25 26 28 31 32 34 35 36 43 44 47 48 49 52 60 62 64 66 68 69 70 71 79 87 92 93
0 7 8 10 15 16 19 24 25 26 27 28 29 30 31 32 33 35 36 37 39 40 41 42 43 47 48 51 57 59 60 61 62 69 70 73 82 84 87 90
1 2 3 10 11 12 15 17 18 19 21 24 26 27 28 29 32 34 35 37 42 43 45 47 49 52 54 57 59 60 64 65 69 71 72 77 80 81 82 84 85 86 87 90 94
0 1 2 5 6 7 8 10 11 13 14 15 16 19 20 21 26 30 33 34 35 38 39 41 42 43 44 45 47 49 50 51 52 53 54 55 56 58 59 60 61 63 64 68 69 71 72 73 76 79 84 85 86 87 88 92 93
1 8 11 12 15 18 19 22 23 25 26 27 36 37 40 41 42 43 44 45 47 49 50 51 54 55 57 58 65 68 70 72 75 76 79 82 85 90 91 92 94
2 4 5 7 8 9 12 13 14 15 17 19 20 23 25 26 29 34 38 40 43 44 45 46 47 49 51 52 53 55 57 58 59 60 61 64 68 71 73 75 78 79 81 84 85 87 88 91 93 94
0 1 2 4 5 7 8 14 15 16 17 18 20 21 28 31 33 37 38 40 45 49 54 55 57 59 60 62 65 66 68 70 71 73 74 76 84 88 90 91 94
1 2 3 4 5 8 10 15 17 19 20 22 24 25 27 28 30 34 36 39 42 46 49 50 51 53 55 63 64 65 66 67 71 72 73 74 78 79 80 82 83 85 88 89 90 91 92 94
1 6 10 12 13 16 18 19 21 23 24 26 27 28 30 31 34 35 36 38 39 46 47 48 50 54 57 58 59 60 62 64 65 66 68 69 70 75 79 80 81 82 84 87
1 2 7 9 11 18 19 21 22 23 24 26 27 28 29 31 35 37 39 40 50 53 54 56 64 65 69 73 74 79 80 90 91 92
7 8 10 19 21 25 27 30 32 33 34 35 38 41 42 53 54 57 62 64 66 71 73 77 78 79 80 82 85 89 92 93 94
5 6 7 9 10 11 12 14 19 21 22 23 26 28 31 32 34 37 39 47 48 51 52 53 59 65 66 67 71 72 74 75 76 80 82 83 84 91 92 93 94
1 2 3 11 12 15 17 18 20 21 22 27 28 29 31 34 37 43 44 47 48 51 52 54 56 60 64 72 74 75 76 84 87 90 91 92 94
1 2 3 4 5 6 10 13 15 25 26 28 29 32 34 35 36 37 38 39 40 41 43 44 49 50 51 52 53 54 57 58 60 66 70 71 72 74 75 76 78 79 81 83 84 86 89 92 93
3 4 7 11 13 14 16 19 22 25 26 27 28 30 31 32 33 36 39 40 42 46 48 50 51 53 58 60 61 63 65 71 76 81 82 83 84 86 88 89 92 93
0 1 2 3 4 5 6 7 10 12 14 16 19 21 22 26 27 28 31 32 33 35 37 41 42 43 44 46 47 49 52 53 56 57 59 61 66 68 69 71 72 73 76 77 80 81 84 86 87 88 89 90 91 94
0 1 2 4 6 9 17 18 25 26 29 32 33 36 37 38 39 41 43 44 45 47 49 50 51 55 57 60 67 73 77 80 82 87 88 90 91 94
0 5 6 7 8 11 13 17 25 26 33 36 39 40 42 45 46 47 52 53 54 56 58 60 64 66 67 68 69 70 75 79 81 82 83 84 87 88 89 92 93
